
Gurobi 9.5.1 (linux64) logging started Mon Jun  6 18:31:00 2022

Set parameter LogFile to value "../results/logs/log_facebook_combined_17_250_2022_06_06_18_31.log"
Set parameter LazyConstraints to value 1
